Academic license - for non-commercial use only
Optimize a model with 109 rows, 196 columns and 592 nonzeros
Variable types: 0 continuous, 196 integer (196 binary)
Coefficient statistics:
  Matrix range     [1e+00, 1e+00]
  Objective range  [7e-01, 3e+02]
  Bounds range     [1e+00, 1e+00]
  RHS range        [1e+00, 3e+00]
Found heuristic solution: objective 585.1032000
Presolve removed 57 rows and 2 columns
Presolve time: 0.00s
Presolved: 52 rows, 194 columns, 388 nonzeros
Variable types: 0 continuous, 194 integer (194 binary)

Root relaxation: objective 1.061748e+03, 1 iterations, 0.00 seconds

    Nodes    |    Current Node    |     Objective Bounds      |     Work
 Expl Unexpl |  Obj  Depth IntInf | Incumbent    BestBd   Gap | It/Node Time

*    0     0               0    1061.7480000 1061.74800  0.00%     -    0s

Explored 0 nodes (1 simplex iterations) in 0.00 seconds
Thread count was 8 (of 8 available processors)

Solution count 2: 1061.75 585.103 

Optimal solution found (tolerance 1.00e-04)
Best objective 1.061748000000e+03, best bound 1.061748000000e+03, gap 0.0000%
Obj: 1061.75
